40 2181 2352 2244
15 27 20 5 39 3 17 19 31 2 14 8 4 7 29 21 30 26 23 12 1 36 18 24 40 13 16 22 37 34 32 25 11 6 35 38 9 10 28 33
1 15 27 7 4 16 37 30 33 25 13 26 36 21 40 3 18 35 38 14 28 8 17 9 23 10 39 29 24 31 2 19 20 32 6 34 22 5 11 12
14 25 13 33 24 8 36 30 2 23 12 5 26 27 10 28 38 15 11 31 29 4 18 7 32 9 19 20 17 1 37 34 3 6 39 40 35 16 22 21